c *********************************
c * Circuit generated by BenCGen
c *
c * Parity_170
c *
c * Ports with 1 gate(s): 1
c * Ports with 2 gate(s): 170
c * Total gates: 171
c *********************************
p cnf 341 681
1 173 0
-1 -173 0
1 -172 0
173 -172 0
-1 -173 172 0
1 2 -174 0
-1 2 174 0
1 -2 174 0
-1 -2 -174 0
3 4 -175 0
-3 4 175 0
3 -4 175 0
-3 -4 -175 0
5 6 -176 0
-5 6 176 0
5 -6 176 0
-5 -6 -176 0
7 8 -177 0
-7 8 177 0
7 -8 177 0
-7 -8 -177 0
9 10 -178 0
-9 10 178 0
9 -10 178 0
-9 -10 -178 0
11 12 -179 0
-11 12 179 0
11 -12 179 0
-11 -12 -179 0
13 14 -180 0
-13 14 180 0
13 -14 180 0
-13 -14 -180 0
15 16 -181 0
-15 16 181 0
15 -16 181 0
-15 -16 -181 0
17 18 -182 0
-17 18 182 0
17 -18 182 0
-17 -18 -182 0
19 20 -183 0
-19 20 183 0
19 -20 183 0
-19 -20 -183 0
21 22 -184 0
-21 22 184 0
21 -22 184 0
-21 -22 -184 0
23 24 -185 0
-23 24 185 0
23 -24 185 0
-23 -24 -185 0
25 26 -186 0
-25 26 186 0
25 -26 186 0
-25 -26 -186 0
27 28 -187 0
-27 28 187 0
27 -28 187 0
-27 -28 -187 0
29 30 -188 0
-29 30 188 0
29 -30 188 0
-29 -30 -188 0
31 32 -189 0
-31 32 189 0
31 -32 189 0
-31 -32 -189 0
33 34 -190 0
-33 34 190 0
33 -34 190 0
-33 -34 -190 0
35 36 -191 0
-35 36 191 0
35 -36 191 0
-35 -36 -191 0
37 38 -192 0
-37 38 192 0
37 -38 192 0
-37 -38 -192 0
39 40 -193 0
-39 40 193 0
39 -40 193 0
-39 -40 -193 0
41 42 -194 0
-41 42 194 0
41 -42 194 0
-41 -42 -194 0
43 44 -195 0
-43 44 195 0
43 -44 195 0
-43 -44 -195 0
45 46 -196 0
-45 46 196 0
45 -46 196 0
-45 -46 -196 0
47 48 -197 0
-47 48 197 0
47 -48 197 0
-47 -48 -197 0
49 50 -198 0
-49 50 198 0
49 -50 198 0
-49 -50 -198 0
51 52 -199 0
-51 52 199 0
51 -52 199 0
-51 -52 -199 0
53 54 -200 0
-53 54 200 0
53 -54 200 0
-53 -54 -200 0
55 56 -201 0
-55 56 201 0
55 -56 201 0
-55 -56 -201 0
57 58 -202 0
-57 58 202 0
57 -58 202 0
-57 -58 -202 0
59 60 -203 0
-59 60 203 0
59 -60 203 0
-59 -60 -203 0
61 62 -204 0
-61 62 204 0
61 -62 204 0
-61 -62 -204 0
63 64 -205 0
-63 64 205 0
63 -64 205 0
-63 -64 -205 0
65 66 -206 0
-65 66 206 0
65 -66 206 0
-65 -66 -206 0
67 68 -207 0
-67 68 207 0
67 -68 207 0
-67 -68 -207 0
69 70 -208 0
-69 70 208 0
69 -70 208 0
-69 -70 -208 0
71 72 -209 0
-71 72 209 0
71 -72 209 0
-71 -72 -209 0
73 74 -210 0
-73 74 210 0
73 -74 210 0
-73 -74 -210 0
75 76 -211 0
-75 76 211 0
75 -76 211 0
-75 -76 -211 0
77 78 -212 0
-77 78 212 0
77 -78 212 0
-77 -78 -212 0
79 80 -213 0
-79 80 213 0
79 -80 213 0
-79 -80 -213 0
81 82 -214 0
-81 82 214 0
81 -82 214 0
-81 -82 -214 0
83 84 -215 0
-83 84 215 0
83 -84 215 0
-83 -84 -215 0
85 86 -216 0
-85 86 216 0
85 -86 216 0
-85 -86 -216 0
87 88 -217 0
-87 88 217 0
87 -88 217 0
-87 -88 -217 0
89 90 -218 0
-89 90 218 0
89 -90 218 0
-89 -90 -218 0
91 92 -219 0
-91 92 219 0
91 -92 219 0
-91 -92 -219 0
93 94 -220 0
-93 94 220 0
93 -94 220 0
-93 -94 -220 0
95 96 -221 0
-95 96 221 0
95 -96 221 0
-95 -96 -221 0
97 98 -222 0
-97 98 222 0
97 -98 222 0
-97 -98 -222 0
99 100 -223 0
-99 100 223 0
99 -100 223 0
-99 -100 -223 0
101 102 -224 0
-101 102 224 0
101 -102 224 0
-101 -102 -224 0
103 104 -225 0
-103 104 225 0
103 -104 225 0
-103 -104 -225 0
105 106 -226 0
-105 106 226 0
105 -106 226 0
-105 -106 -226 0
107 108 -227 0
-107 108 227 0
107 -108 227 0
-107 -108 -227 0
109 110 -228 0
-109 110 228 0
109 -110 228 0
-109 -110 -228 0
111 112 -229 0
-111 112 229 0
111 -112 229 0
-111 -112 -229 0
113 114 -230 0
-113 114 230 0
113 -114 230 0
-113 -114 -230 0
115 116 -231 0
-115 116 231 0
115 -116 231 0
-115 -116 -231 0
117 118 -232 0
-117 118 232 0
117 -118 232 0
-117 -118 -232 0
119 120 -233 0
-119 120 233 0
119 -120 233 0
-119 -120 -233 0
121 122 -234 0
-121 122 234 0
121 -122 234 0
-121 -122 -234 0
123 124 -235 0
-123 124 235 0
123 -124 235 0
-123 -124 -235 0
125 126 -236 0
-125 126 236 0
125 -126 236 0
-125 -126 -236 0
127 128 -237 0
-127 128 237 0
127 -128 237 0
-127 -128 -237 0
129 130 -238 0
-129 130 238 0
129 -130 238 0
-129 -130 -238 0
131 132 -239 0
-131 132 239 0
131 -132 239 0
-131 -132 -239 0
133 134 -240 0
-133 134 240 0
133 -134 240 0
-133 -134 -240 0
135 136 -241 0
-135 136 241 0
135 -136 241 0
-135 -136 -241 0
137 138 -242 0
-137 138 242 0
137 -138 242 0
-137 -138 -242 0
139 140 -243 0
-139 140 243 0
139 -140 243 0
-139 -140 -243 0
141 142 -244 0
-141 142 244 0
141 -142 244 0
-141 -142 -244 0
143 144 -245 0
-143 144 245 0
143 -144 245 0
-143 -144 -245 0
145 146 -246 0
-145 146 246 0
145 -146 246 0
-145 -146 -246 0
147 148 -247 0
-147 148 247 0
147 -148 247 0
-147 -148 -247 0
149 150 -248 0
-149 150 248 0
149 -150 248 0
-149 -150 -248 0
151 152 -249 0
-151 152 249 0
151 -152 249 0
-151 -152 -249 0
153 154 -250 0
-153 154 250 0
153 -154 250 0
-153 -154 -250 0
155 156 -251 0
-155 156 251 0
155 -156 251 0
-155 -156 -251 0
157 158 -252 0
-157 158 252 0
157 -158 252 0
-157 -158 -252 0
159 160 -253 0
-159 160 253 0
159 -160 253 0
-159 -160 -253 0
161 162 -254 0
-161 162 254 0
161 -162 254 0
-161 -162 -254 0
163 164 -255 0
-163 164 255 0
163 -164 255 0
-163 -164 -255 0
165 166 -256 0
-165 166 256 0
165 -166 256 0
-165 -166 -256 0
167 168 -257 0
-167 168 257 0
167 -168 257 0
-167 -168 -257 0
169 170 -258 0
-169 170 258 0
169 -170 258 0
-169 -170 -258 0
174 175 -259 0
-174 175 259 0
174 -175 259 0
-174 -175 -259 0
176 177 -260 0
-176 177 260 0
176 -177 260 0
-176 -177 -260 0
178 179 -261 0
-178 179 261 0
178 -179 261 0
-178 -179 -261 0
180 181 -262 0
-180 181 262 0
180 -181 262 0
-180 -181 -262 0
182 183 -263 0
-182 183 263 0
182 -183 263 0
-182 -183 -263 0
184 185 -264 0
-184 185 264 0
184 -185 264 0
-184 -185 -264 0
186 187 -265 0
-186 187 265 0
186 -187 265 0
-186 -187 -265 0
188 189 -266 0
-188 189 266 0
188 -189 266 0
-188 -189 -266 0
190 191 -267 0
-190 191 267 0
190 -191 267 0
-190 -191 -267 0
192 193 -268 0
-192 193 268 0
192 -193 268 0
-192 -193 -268 0
194 195 -269 0
-194 195 269 0
194 -195 269 0
-194 -195 -269 0
196 197 -270 0
-196 197 270 0
196 -197 270 0
-196 -197 -270 0
198 199 -271 0
-198 199 271 0
198 -199 271 0
-198 -199 -271 0
200 201 -272 0
-200 201 272 0
200 -201 272 0
-200 -201 -272 0
202 203 -273 0
-202 203 273 0
202 -203 273 0
-202 -203 -273 0
204 205 -274 0
-204 205 274 0
204 -205 274 0
-204 -205 -274 0
206 207 -275 0
-206 207 275 0
206 -207 275 0
-206 -207 -275 0
208 209 -276 0
-208 209 276 0
208 -209 276 0
-208 -209 -276 0
210 211 -277 0
-210 211 277 0
210 -211 277 0
-210 -211 -277 0
212 213 -278 0
-212 213 278 0
212 -213 278 0
-212 -213 -278 0
214 215 -279 0
-214 215 279 0
214 -215 279 0
-214 -215 -279 0
216 217 -280 0
-216 217 280 0
216 -217 280 0
-216 -217 -280 0
218 219 -281 0
-218 219 281 0
218 -219 281 0
-218 -219 -281 0
220 221 -282 0
-220 221 282 0
220 -221 282 0
-220 -221 -282 0
222 223 -283 0
-222 223 283 0
222 -223 283 0
-222 -223 -283 0
224 225 -284 0
-224 225 284 0
224 -225 284 0
-224 -225 -284 0
226 227 -285 0
-226 227 285 0
226 -227 285 0
-226 -227 -285 0
228 229 -286 0
-228 229 286 0
228 -229 286 0
-228 -229 -286 0
230 231 -287 0
-230 231 287 0
230 -231 287 0
-230 -231 -287 0
232 233 -288 0
-232 233 288 0
232 -233 288 0
-232 -233 -288 0
234 235 -289 0
-234 235 289 0
234 -235 289 0
-234 -235 -289 0
236 237 -290 0
-236 237 290 0
236 -237 290 0
-236 -237 -290 0
238 239 -291 0
-238 239 291 0
238 -239 291 0
-238 -239 -291 0
240 241 -292 0
-240 241 292 0
240 -241 292 0
-240 -241 -292 0
242 243 -293 0
-242 243 293 0
242 -243 293 0
-242 -243 -293 0
244 245 -294 0
-244 245 294 0
244 -245 294 0
-244 -245 -294 0
246 247 -295 0
-246 247 295 0
246 -247 295 0
-246 -247 -295 0
248 249 -296 0
-248 249 296 0
248 -249 296 0
-248 -249 -296 0
250 251 -297 0
-250 251 297 0
250 -251 297 0
-250 -251 -297 0
252 253 -298 0
-252 253 298 0
252 -253 298 0
-252 -253 -298 0
254 255 -299 0
-254 255 299 0
254 -255 299 0
-254 -255 -299 0
256 257 -300 0
-256 257 300 0
256 -257 300 0
-256 -257 -300 0
259 260 -301 0
-259 260 301 0
259 -260 301 0
-259 -260 -301 0
261 262 -302 0
-261 262 302 0
261 -262 302 0
-261 -262 -302 0
263 264 -303 0
-263 264 303 0
263 -264 303 0
-263 -264 -303 0
265 266 -304 0
-265 266 304 0
265 -266 304 0
-265 -266 -304 0
267 268 -305 0
-267 268 305 0
267 -268 305 0
-267 -268 -305 0
269 270 -306 0
-269 270 306 0
269 -270 306 0
-269 -270 -306 0
271 272 -307 0
-271 272 307 0
271 -272 307 0
-271 -272 -307 0
273 274 -308 0
-273 274 308 0
273 -274 308 0
-273 -274 -308 0
275 276 -309 0
-275 276 309 0
275 -276 309 0
-275 -276 -309 0
277 278 -310 0
-277 278 310 0
277 -278 310 0
-277 -278 -310 0
279 280 -311 0
-279 280 311 0
279 -280 311 0
-279 -280 -311 0
281 282 -312 0
-281 282 312 0
281 -282 312 0
-281 -282 -312 0
283 284 -313 0
-283 284 313 0
283 -284 313 0
-283 -284 -313 0
285 286 -314 0
-285 286 314 0
285 -286 314 0
-285 -286 -314 0
287 288 -315 0
-287 288 315 0
287 -288 315 0
-287 -288 -315 0
289 290 -316 0
-289 290 316 0
289 -290 316 0
-289 -290 -316 0
291 292 -317 0
-291 292 317 0
291 -292 317 0
-291 -292 -317 0
293 294 -318 0
-293 294 318 0
293 -294 318 0
-293 -294 -318 0
295 296 -319 0
-295 296 319 0
295 -296 319 0
-295 -296 -319 0
297 298 -320 0
-297 298 320 0
297 -298 320 0
-297 -298 -320 0
299 300 -321 0
-299 300 321 0
299 -300 321 0
-299 -300 -321 0
301 302 -322 0
-301 302 322 0
301 -302 322 0
-301 -302 -322 0
303 304 -323 0
-303 304 323 0
303 -304 323 0
-303 -304 -323 0
305 306 -324 0
-305 306 324 0
305 -306 324 0
-305 -306 -324 0
307 308 -325 0
-307 308 325 0
307 -308 325 0
-307 -308 -325 0
309 310 -326 0
-309 310 326 0
309 -310 326 0
-309 -310 -326 0
311 312 -327 0
-311 312 327 0
311 -312 327 0
-311 -312 -327 0
313 314 -328 0
-313 314 328 0
313 -314 328 0
-313 -314 -328 0
315 316 -329 0
-315 316 329 0
315 -316 329 0
-315 -316 -329 0
317 318 -330 0
-317 318 330 0
317 -318 330 0
-317 -318 -330 0
319 320 -331 0
-319 320 331 0
319 -320 331 0
-319 -320 -331 0
321 258 -332 0
-321 258 332 0
321 -258 332 0
-321 -258 -332 0
322 323 -333 0
-322 323 333 0
322 -323 333 0
-322 -323 -333 0
324 325 -334 0
-324 325 334 0
324 -325 334 0
-324 -325 -334 0
326 327 -335 0
-326 327 335 0
326 -327 335 0
-326 -327 -335 0
328 329 -336 0
-328 329 336 0
328 -329 336 0
-328 -329 -336 0
330 331 -337 0
-330 331 337 0
330 -331 337 0
-330 -331 -337 0
333 334 -338 0
-333 334 338 0
333 -334 338 0
-333 -334 -338 0
335 336 -339 0
-335 336 339 0
335 -336 339 0
-335 -336 -339 0
337 332 -340 0
-337 332 340 0
337 -332 340 0
-337 -332 -340 0
338 339 -341 0
-338 339 341 0
338 -339 341 0
-338 -339 -341 0
341 340 -171 0
-341 340 171 0
341 -340 171 0
-341 -340 -171 0
